webassembly/ejemplos_results/10/folder10_json_43.txt
value = 10;
fgas = [1, 1, 1, 1, 1, 2, 1, 1, 1, 1];
fsize = [1, 1, 1, 1, 1, 1, 1, 1, 1, 1];
states = 
[|   in_0, in_1, in_2, in_3, in_4, in_5, in_6, in_7, '.', '.',  '.',  '.',  '.'
 |   in_2, in_3, in_4, in_5, in_6, in_7,  '.',  '.', '.', '.',  '.',  '.', in_0
 | 's(0)', in_3, in_4, in_5, in_6, in_7,  '.',  '.', '.', '.',  '.',  '.', in_0
 | 's(1)', in_3, in_4, in_5, in_6, in_7,  '.',  '.', '.', '.',  '.',  '.', in_6
 |   in_4, in_5, in_6, in_7,  '.',  '.',  '.',  '.', '.', '.',  '.',  '.', in_0
 |   in_5, in_6, in_7,  '.',  '.',  '.',  '.',  '.', '.', '.',  '.', in_0,  '.'
 |   in_6, in_7,  '.',  '.',  '.',  '.',  '.',  '.', '.', '.', in_0,  '.',  '.'
 | 's(3)', in_7,  '.',  '.',  '.',  '.',  '.',  '.', '.', '.', in_0,  '.',  '.'
 | 's(3)', in_7,  '.',  '.',  '.',  '.',  '.',  '.', '.', '.',  '.',  '.', in_0
 | 's(4)', in_7,  '.',  '.',  '.',  '.',  '.',  '.', '.', '.',  '.',  '.', in_0
 |    '.',  '.',  '.',  '.',  '.',  '.',  '.',  '.', '.', '.',  '.',  '.',  '.'
 |];
register_states = 
[| local_0, '.', '.', '.', '.'
 | local_0, '.', '.', '.', '.'
 | local_0, '.', '.', '.', '.'
 | local_0, '.', '.', '.', '.'
 | local_0, '.', '.', '.', '.'
 |    in_4, '.', '.', '.', '.'
 |    in_4, '.', '.', '.', '.'
 |    in_4, '.', '.', '.', '.'
 |  's(3)', '.', '.', '.', '.'
 |  's(3)', '.', '.', '.', '.'
 |  's(3)', '.', '.', '.', '.'
 |];
program = [O('i32.store8_0'), O('i32.load8_s_1'), O('i32.load16_u_2'), O('i32.store8_3'), S(SET1), POP, O('i32.load8_u_6'), TEE(TEE1), O('i32.load16_s_8'), O('i32.store_9')];
% time elapsed: 0.15 s
----------
==========
% time elapsed: 0.16 s
% [value > 9]
